(declare-const term_to_project_onto0 Real)
(declare-const term_to_project_onto Real)
(assert (exists ((|i1'?1| Int) (|k'?2| Int) (i1?3 Int) (k?4 Int) (n1?5 Int))
         (and (<= (- i1?3) 0) (<= (- k?4) 0) (<= (+ (- n1?5) i1?3 1) 0)
                (= (+ |i1'?1| (- i1?3) -1) 0) (= (+ |k'?2| (- k?4) -1) 0)
                (= term_to_project_onto0 (+ |k'?2| (- k?4)))
                (= term_to_project_onto (+ |i1'?1| (- i1?3))))))
(check-sat)
